data;
param T := 14500;
param N := 23;
param W := 
[0] 6539
[1] 439
[2] 5924
[3] 3064
[4] 907
[5] 729
[6] 8472
[7] 2551
[8] 4938
[9] 1831
[10] 2388
[11] 1701
[12] 10
[13] 8203
[14] 6091
[15] 992
[16] 7300
[17] 2302
[18] 6711
[19] 8529
[20] 494
[21] 796
[22] 6445
;
end;